20170712 10 0 0 0
20160713 0 0 0 0
20150706 0 3000 0 0
20140515 12 0 0 0
20130820 93 0 0 0
20120614 60 0 0 0
20100720 0 3000 0 0
20071119 0 2000 0 0
19981202 50 0 0 0
19971022 0 6000 0 0
19970530 0 1000 0 0
19970224 0 2000 0 0
